SECTION Graph
Nodes 493
Edges 963
E 1 3 1
E 1 9 102
E 1 453 91
E 2 4 14
E 2 450 102
E 3 21 180
E 3 454 91
E 4 5 1
E 4 455 102
E 5 11 102
E 6 213 300
E 6 265 277
E 6 368 255
E 7 8 1
E 7 9 1
E 7 431 91
E 8 10 14
E 8 450 1
E 9 434 91
E 9 450 1
E 10 455 1
E 11 455 1
E 12 13 1
E 12 14 1
E 12 19 104
E 13 15 14
E 13 468 104
E 15 16 1
E 15 469 104
E 16 22 104
E 17 18 1
E 17 19 1
E 17 452 104
E 18 20 14
E 18 454 104
E 18 468 1
E 19 468 1
E 20 21 1
E 20 469 1
E 21 22 1
E 22 469 1
E 23 24 1
E 23 25 1
E 23 32 76
E 24 26 14
E 24 424 1
E 25 412 76
E 25 424 1
E 26 427 1
E 27 427 1
E 27 428 76
E 28 29 1
E 28 30 1
E 28 329 145
E 29 31 14
E 29 397 1
E 30 330 145
E 30 396 1
E 30 397 1
E 31 409 1
E 32 409 1
E 32 412 1
E 33 34 1
E 33 35 1
E 33 313 7
E 33 319 1
E 34 36 14
E 34 321 1
E 34 322 1
E 35 316 7
E 35 322 1
E 36 37 1
E 36 328 1
E 36 331 1
E 37 38 1
E 37 330 1
E 37 396 145
E 38 331 1
E 39 467 190
E 40 307 153
E 41 42 1
E 41 442 30
E 41 444 1
E 41 446 1
E 42 43 1
E 42 443 30
E 42 456 74
E 43 446 1
E 43 448 14
E 43 458 74
E 44 45 1
E 44 446 14
E 44 447 1
E 44 448 1
E 45 46 1
E 45 449 1
E 46 447 1
E 47 48 1
E 47 49 1
E 47 373 111
E 47 407 76
E 48 50 14
E 48 375 111
E 48 421 1
E 49 408 76
E 49 421 1
E 49 429 100
E 50 51 1
E 50 383 111
E 50 426 1
E 51 52 1
E 51 385 111
E 52 426 1
E 52 440 100
E 53 54 1
E 53 55 1
E 53 283 120
E 53 302 76
E 54 56 14
E 54 285 120
E 54 336 1
E 55 303 76
E 55 336 1
E 55 372 103
E 56 57 1
E 56 338 12
E 56 346 1
E 57 58 1
E 57 340 12
E 58 346 1
E 58 384 103
E 59 60 1
E 59 61 1
E 59 270 145
E 59 333 16
E 60 62 14
E 60 335 16
E 60 345 1
E 61 271 145
E 61 345 1
E 61 376 96
E 62 63 1
E 62 342 16
E 62 353 1
E 63 64 1
E 63 344 16
E 63 372 76
E 64 353 1
E 64 373 76
E 64 391 96
E 65 66 1
E 65 67 1
E 65 224 237
E 65 251 85
E 66 68 14
E 66 253 85
E 66 294 1
E 67 225 237
E 67 294 1
E 67 295 12
E 68 69 1
E 68 255 86
E 68 299 1
E 69 70 1
E 69 257 86
E 69 337 91
E 70 299 1
E 70 302 12
E 70 338 91
E 71 72 1
E 71 73 1
E 71 171 237
E 72 74 14
E 72 239 1
E 73 173 237
E 73 238 1
E 73 239 1
E 74 75 1
E 74 243 1
E 75 76 1
E 75 278 76
E 76 243 1
E 76 246 1
E 76 279 76
E 77 418 1
E 77 420 1
E 78 420 1
E 78 459 229
E 79 80 1
E 79 420 14
E 79 422 1
E 80 81 1
E 80 457 214
E 81 417 74
E 81 422 1
E 81 456 214
E 82 83 1
E 82 276 76
E 82 304 1
E 82 306 1
E 83 84 1
E 83 277 76
E 83 308 13
E 84 306 1
E 84 312 13
E 84 315 14
E 85 86 1
E 85 306 14
E 85 309 1
E 85 315 1
E 86 87 1
E 86 317 1
E 86 348 53
E 87 271 96
E 87 309 1
E 87 347 53
E 88 89 1
E 88 90 1
E 88 219 86
E 88 228 76
E 89 91 14
E 89 221 86
E 89 236 1
E 90 229 76
E 90 236 1
E 90 262 113
E 91 92 1
E 91 233 86
E 91 237 1
E 92 93 1
E 92 235 86
E 92 332 237
E 93 237 1
E 93 258 92
E 93 274 113
E 93 333 237
E 94 96 14
E 94 121 1
E 95 121 1
E 95 131 64
E 96 97 1
E 96 122 1
E 97 98 1
E 98 122 1
E 98 147 64
E 99 100 1
E 99 158 7
E 99 161 1
E 99 166 1
E 100 101 1
E 100 160 7
E 100 189 86
E 101 166 1
E 101 172 14
E 101 190 85
E 102 103 1
E 102 166 14
E 102 168 1
E 102 172 1
E 103 104 1
E 103 174 1
E 103 176 7
E 104 159 22
E 104 168 1
E 104 175 7
E 105 106 1
E 105 114 7
E 105 125 1
E 105 127 1
E 106 107 1
E 106 124 7
E 106 161 50
E 107 127 1
E 107 129 14
E 107 140 27
E 108 109 1
E 108 127 14
E 108 128 1
E 108 129 1
E 109 110 1
E 109 130 1
E 109 132 7
E 110 128 1
E 110 131 7
E 111 112 1
E 111 137 50
E 112 123 14
E 112 139 50
E 113 114 1
E 113 123 1
E 114 115 1
E 114 124 1
E 115 125 7
E 116 117 1
E 116 212 86
E 117 187 14
E 117 214 86
E 118 119 1
E 118 187 1
E 119 120 1
E 119 188 1
E 119 193 53
E 120 141 127
E 120 192 53
E 121 122 14
E 121 133 64
E 122 145 64
E 123 124 1
E 123 151 50
E 124 154 50
E 125 126 1
E 126 127 1
E 126 128 14
E 129 130 1
E 129 152 27
E 130 134 7
E 130 156 27
E 131 132 1
E 131 133 1
E 132 134 1
E 132 135 1
E 133 135 1
E 133 145 14
E 134 136 1
E 134 162 27
E 135 136 1
E 135 146 14
E 136 148 14
E 136 165 27
E 137 138 1
E 137 139 1
E 138 141 1
E 138 142 1
E 139 142 1
E 139 151 14
E 140 143 1
E 140 152 14
E 141 144 1
E 142 144 1
E 142 153 14
E 143 155 14
E 143 163 22
E 144 157 14
E 145 146 1
E 145 147 1
E 146 148 1
E 146 149 1
E 147 149 1
E 148 150 1
E 148 169 27
E 149 150 1
E 150 171 27
E 151 153 1
E 151 154 1
E 152 155 1
E 152 156 1
E 153 157 1
E 153 158 1
E 154 158 1
E 154 161 7
E 155 159 1
E 155 168 22
E 156 159 1
E 156 162 7
E 157 160 1
E 158 160 1
E 159 164 7
E 161 163 1
E 162 164 1
E 162 165 1
E 163 166 1
E 163 168 14
E 164 167 1
E 164 175 22
E 165 167 1
E 165 169 14
E 167 170 14
E 167 177 22
E 169 170 1
E 169 171 1
E 170 173 1
E 170 181 22
E 171 173 1
E 172 174 1
E 172 198 85
E 173 183 22
E 174 178 7
E 174 200 85
E 175 176 1
E 175 177 1
E 176 178 1
E 176 179 1
E 177 179 1
E 177 181 14
E 178 180 1
E 178 202 85
E 179 180 1
E 179 182 14
E 180 184 14
E 180 204 85
E 181 182 1
E 181 183 1
E 182 184 1
E 182 185 1
E 183 185 1
E 183 248 237
E 184 186 1
E 184 222 85
E 185 186 1
E 185 249 237
E 186 224 85
E 186 251 237
E 187 188 1
E 187 226 86
E 188 195 53
E 188 228 86
E 189 191 1
E 189 192 11
E 190 191 1
E 190 198 14
E 191 194 11
E 191 199 14
E 192 193 1
E 192 194 1
E 193 195 1
E 193 196 1
E 194 196 1
E 194 206 14
E 195 197 1
E 196 197 1
E 196 207 14
E 197 209 14
E 198 199 1
E 198 200 1
E 199 201 1
E 199 206 11
E 200 201 1
E 200 202 7
E 201 203 7
E 201 208 11
E 202 203 1
E 202 204 1
E 203 205 1
E 203 216 11
E 204 205 1
E 204 222 14
E 205 218 11
E 205 223 14
E 206 207 1
E 206 208 1
E 207 209 1
E 207 210 1
E 208 210 1
E 208 216 7
E 209 211 1
E 210 211 1
E 210 217 7
E 211 219 7
E 212 213 1
E 212 214 1
E 213 215 1
E 214 215 1
E 214 226 14
E 215 227 14
E 216 217 1
E 216 218 1
E 217 219 1
E 217 220 1
E 218 220 1
E 218 230 14
E 219 221 1
E 220 221 1
E 220 231 14
E 221 233 14
E 222 223 1
E 222 224 1
E 223 225 1
E 223 230 11
E 224 225 1
E 225 232 11
E 226 227 1
E 226 228 1
E 227 229 1
E 228 229 1
E 230 231 1
E 230 232 1
E 231 233 1
E 231 234 1
E 232 234 1
E 233 235 1
E 234 235 1
E 234 295 237
E 235 296 237
E 236 237 14
E 236 264 113
E 237 272 113
E 238 240 1
E 238 241 1
E 239 241 1
E 239 243 14
E 240 242 1
E 240 248 20
E 241 242 1
E 241 244 14
E 242 245 14
E 242 250 20
E 243 244 1
E 244 245 1
E 244 246 1
E 245 247 1
E 245 254 20
E 246 247 1
E 246 281 76
E 247 256 20
E 247 283 76
E 248 249 1
E 248 250 1
E 249 251 1
E 249 252 1
E 250 252 1
E 250 254 14
E 251 253 1
E 252 253 1
E 252 255 14
E 254 255 1
E 254 256 1
E 255 257 1
E 256 257 1
E 258 259 1
E 258 260 1
E 259 261 1
E 259 304 96
E 260 261 1
E 260 268 14
E 261 269 14
E 261 305 96
E 262 263 1
E 262 264 1
E 263 265 1
E 263 266 1
E 264 266 1
E 264 272 14
E 265 267 1
E 266 267 1
E 266 273 14
E 267 275 14
E 268 269 1
E 268 270 1
E 269 271 1
E 269 309 96
E 270 271 1
E 272 273 1
E 272 274 1
E 273 275 1
E 273 276 1
E 274 276 1
E 274 304 76
E 275 277 1
E 276 277 1
E 278 279 1
E 278 280 1
E 279 281 1
E 279 282 1
E 280 282 1
E 280 286 14
E 281 283 1
E 281 284 1
E 282 284 1
E 282 287 14
E 283 285 1
E 284 285 1
E 284 289 14
E 285 291 14
E 286 287 1
E 286 288 1
E 287 289 1
E 287 290 1
E 288 290 1
E 288 307 69
E 289 291 1
E 289 292 1
E 290 292 1
E 290 310 69
E 291 293 1
E 291 337 107
E 292 293 1
E 292 313 69
E 293 316 69
E 293 339 107
E 294 297 12
E 294 299 14
E 295 296 1
E 295 297 1
E 296 298 1
E 296 332 86
E 297 298 1
E 297 300 14
E 298 301 14
E 298 334 86
E 299 300 12
E 300 301 1
E 300 302 1
E 301 303 1
E 301 341 86
E 302 303 1
E 303 343 86
E 304 305 1
E 305 306 1
E 305 309 14
E 307 310 1
E 307 318 7
E 308 311 1
E 308 312 1
E 310 313 1
E 310 319 7
E 311 314 1
E 311 368 100
E 312 314 1
E 312 323 14
E 313 316 1
E 314 324 14
E 314 369 100
E 315 317 1
E 315 323 13
E 317 325 13
E 317 350 53
E 318 319 1
E 318 320 1
E 319 321 1
E 320 321 1
E 320 327 14
E 321 328 14
E 322 331 14
E 323 324 1
E 323 325 1
E 324 326 1
E 324 370 100
E 325 326 1
E 325 354 53
E 326 356 53
E 326 371 100
E 327 328 1
E 327 329 1
E 328 330 1
E 329 330 1
E 332 333 1
E 332 334 1
E 333 335 1
E 334 335 1
E 334 341 14
E 335 342 14
E 336 346 14
E 336 374 103
E 337 338 1
E 337 339 1
E 338 340 1
E 339 340 1
E 341 342 1
E 341 343 1
E 342 344 1
E 343 344 1
E 345 353 14
E 345 378 96
E 346 382 103
E 347 348 1
E 347 349 1
E 348 350 1
E 348 351 1
E 349 351 1
E 349 355 14
E 350 352 1
E 350 354 13
E 351 352 1
E 351 358 14
E 352 357 13
E 352 361 14
E 353 387 96
E 354 356 1
E 354 357 1
E 355 358 1
E 355 359 1
E 356 360 1
E 356 398 100
E 357 360 1
E 357 364 14
E 358 361 1
E 358 362 1
E 359 362 1
E 359 376 76
E 360 365 14
E 360 401 100
E 361 363 1
E 361 364 13
E 362 363 1
E 362 377 76
E 363 366 13
E 363 379 76
E 364 365 1
E 364 366 1
E 365 367 1
E 365 411 100
E 366 367 1
E 366 386 76
E 367 388 76
E 367 414 100
E 368 369 1
E 369 370 14
E 370 371 1
E 371 398 53
E 372 373 1
E 372 374 1
E 373 375 1
E 374 375 1
E 374 382 14
E 375 383 14
E 376 377 1
E 376 378 1
E 377 379 1
E 377 380 1
E 378 380 1
E 378 387 14
E 379 381 1
E 379 386 13
E 380 381 1
E 380 390 14
E 381 389 13
E 381 393 14
E 382 383 1
E 382 384 1
E 383 385 1
E 384 385 1
E 386 388 1
E 386 389 1
E 387 390 1
E 387 391 1
E 388 392 1
E 388 423 100
E 389 392 1
E 389 405 14
E 390 393 1
E 390 394 1
E 391 394 1
E 392 406 14
E 392 425 100
E 393 395 1
E 393 405 13
E 394 395 1
E 395 407 13
E 396 399 1
E 397 399 1
E 397 409 14
E 398 400 1
E 398 401 1
E 399 410 14
E 400 402 1
E 400 403 1
E 401 403 1
E 401 411 14
E 402 404 1
E 402 418 74
E 403 404 1
E 403 413 14
E 404 415 14
E 404 419 74
E 405 406 1
E 405 407 1
E 406 408 1
E 407 408 1
E 409 410 1
E 410 412 1
E 411 413 1
E 411 414 1
E 413 415 1
E 413 416 1
E 414 416 1
E 414 423 76
E 415 417 1
E 415 422 74
E 416 417 1
E 416 432 168
E 417 435 168
E 418 419 1
E 419 420 1
E 419 422 14
E 421 426 14
E 421 433 100
E 423 425 1
E 424 427 14
E 425 429 91
E 426 438 100
E 428 430 1
E 428 431 1
E 429 432 1
E 429 433 1
E 430 434 1
E 430 451 102
E 431 434 1
E 432 435 1
E 432 436 1
E 433 436 1
E 433 438 14
E 434 453 102
E 435 437 1
E 436 437 1
E 436 439 14
E 437 441 14
E 438 439 1
E 438 440 1
E 439 441 1
E 439 442 1
E 440 442 1
E 440 444 30
E 441 443 1
E 442 443 1
E 444 445 1
E 445 446 1
E 445 447 14
E 448 449 1
E 448 462 74
E 449 464 74
E 450 455 14
E 451 452 1
E 451 453 1
E 452 454 1
E 453 454 1
E 456 457 1
E 456 458 1
E 457 459 1
E 457 460 1
E 458 460 1
E 458 462 14
E 459 461 1
E 460 461 1
E 460 463 14
E 461 465 14
E 462 463 1
E 462 464 1
E 463 465 1
E 463 466 1
E 464 466 1
E 465 467 1
E 466 467 1
E 468 469 14
E 1 470 100000
E 2 470 100000
E 3 470 100000
E 4 470 100000
E 5 470 100000
E 6 471 100000
E 7 472 100000
E 8 472 100000
E 9 472 100000
E 10 472 100000
E 11 472 100000
E 12 473 100000
E 13 473 100000
E 14 473 100000
E 15 473 100000
E 16 473 100000
E 17 474 100000
E 18 474 100000
E 19 474 100000
E 20 474 100000
E 21 474 100000
E 22 474 100000
E 23 475 100000
E 24 475 100000
E 25 475 100000
E 26 475 100000
E 27 475 100000
E 28 476 100000
E 29 476 100000
E 30 476 100000
E 31 476 100000
E 32 476 100000
E 33 477 100000
E 34 477 100000
E 35 477 100000
E 36 477 100000
E 37 477 100000
E 38 477 100000
E 39 478 100000
E 40 479 100000
E 41 480 100000
E 42 480 100000
E 43 480 100000
E 44 480 100000
E 45 480 100000
E 46 480 100000
E 47 481 100000
E 48 481 100000
E 49 481 100000
E 50 481 100000
E 51 481 100000
E 52 481 100000
E 53 482 100000
E 54 482 100000
E 55 482 100000
E 56 482 100000
E 57 482 100000
E 58 482 100000
E 59 483 100000
E 60 483 100000
E 61 483 100000
E 62 483 100000
E 63 483 100000
E 64 483 100000
E 65 484 100000
E 66 484 100000
E 67 484 100000
E 68 484 100000
E 69 484 100000
E 70 484 100000
E 71 485 100000
E 72 485 100000
E 73 485 100000
E 74 485 100000
E 75 485 100000
E 76 485 100000
E 77 486 100000
E 78 486 100000
E 79 486 100000
E 80 486 100000
E 81 486 100000
E 82 487 100000
E 83 487 100000
E 84 487 100000
E 85 487 100000
E 86 487 100000
E 87 487 100000
E 88 488 100000
E 89 488 100000
E 90 488 100000
E 91 488 100000
E 92 488 100000
E 93 488 100000
E 94 489 100000
E 95 489 100000
E 96 489 100000
E 97 489 100000
E 98 489 100000
E 99 490 100000
E 100 490 100000
E 101 490 100000
E 102 490 100000
E 103 490 100000
E 104 490 100000
E 105 491 100000
E 106 491 100000
E 107 491 100000
E 108 491 100000
E 109 491 100000
E 110 491 100000
E 111 492 100000
E 112 492 100000
E 113 492 100000
E 114 492 100000
E 115 492 100000
E 116 493 100000
E 117 493 100000
E 118 493 100000
E 119 493 100000
E 120 493 100000
END

SECTION Terminals
Terminals 24
T 470
T 471
T 472
T 473
T 474
T 475
T 476
T 477
T 478
T 479
T 480
T 481
T 482
T 483
T 484
T 485
T 486
T 487
T 488
T 489
T 490
T 491
T 492
T 493
END

SECTION Tree Decomposition
c We do not guarantee that this tree decomposition has minimum width.
s td 406 21 493
b 1 471 6
b 2 478 39
b 3 479 40
b 4 39 467
b 5 40 307
b 6 14 12 473
b 7 467 465 466
b 8 97 96 489 98
b 9 26 24 427 475
b 10 94 96 489 121
b 11 113 123 492 114
b 12 111 112 137 492
b 13 116 117 212 493
b 14 465 466 463 461
b 15 115 492 114 125
b 16 466 463 464 461
b 17 118 119 187 493
b 18 31 409 29 476
b 19 38 331 477 37
b 20 10 455 8 472
b 21 46 447 480 45
b 22 12 473 13 19
b 23 2 4 450 470
b 24 16 473 15 22
b 25 5 4 11 470
b 26 96 489 121 122 98
b 27 4 11 455 450 470
b 28 489 95 121 122 98
b 29 11 455 450 472 470
b 30 455 8 450 472 470
b 31 8 450 472 7 470
b 32 450 472 7 9 470
b 33 7 9 431 470
b 34 355 359 358 349
b 35 368 311 369 6
b 36 370 371 369 324
b 37 343 344 341 303
b 38 384 385 382 58
b 39 391 394 64 387
b 40 395 394 393 407
b 41 396 399 30 37
b 42 452 451 454 17
b 43 400 403 402 398
b 44 27 427 475 428
b 45 408 406 407 49
b 46 410 412 409 399
b 47 418 77 419 402
b 48 423 425 388 414
b 49 445 444 446 447
b 50 424 24 427 25
b 51 24 427 475 23 25
b 52 427 475 23 25 428
b 53 23 25 32 428
b 54 25 412 32 428
b 55 430 434 451 428
b 56 437 435 436 441
b 57 347 349 348 87
b 58 443 42 442 441
b 59 449 464 45 448
b 60 459 78 457 461
b 61 126 128 127 125
b 62 138 141 137 142
b 63 140 143 107 152
b 64 144 141 142 157
b 65 147 98 145 149
b 66 160 157 158 100
b 67 150 149 148 171
b 68 189 192 100 191
b 69 190 198 101 191
b 70 195 197 188 193
b 71 209 211 207 197
b 72 213 212 215 6
b 73 227 229 215 226
b 74 232 225 230 234
b 75 238 240 241 73
b 76 253 66 251 252
b 77 256 257 254 247
b 78 258 259 260 93
b 79 262 263 264 90
b 80 265 263 267 6
b 81 268 270 260 269
b 82 275 277 267 273
b 83 278 280 279 75
b 84 286 288 287 280
b 85 308 311 312 83
b 86 307 318 310 288
b 87 316 35 313 293
b 88 320 327 321 318
b 89 322 331 34 35
b 90 329 28 330 327
b 91 339 340 293 337
b 92 95 121 122 98 131
b 93 121 122 98 133 131
b 94 122 98 145 133 131
b 95 98 145 133 149 131
b 96 145 133 146 149 131
b 97 133 146 149 135 131
b 98 146 149 148 135 131
b 99 149 148 135 131 171
b 100 412 32 428 409 399
b 101 32 428 409 476 399
b 102 473 13 15 19 22
b 103 13 15 468 19 22
b 104 15 469 468 19 22
b 105 9 431 470 1 434
b 106 431 470 1 434 428
b 107 470 1 434 3 428
b 108 1 434 453 3 428
b 109 434 453 451 3 428
b 110 453 451 454 3 428
b 111 451 454 3 17 428
b 112 454 3 17 18 428
b 113 469 468 19 22 20
b 114 468 19 22 20 18
b 115 19 22 20 474 17 18
b 116 22 20 474 21 17 18
b 117 21 3 17 18
b 118 409 397 29 476 399
b 119 397 29 476 399 30
b 120 29 476 399 30 28
b 121 399 30 28 37
b 122 30 28 330 37
b 123 28 330 327 37
b 124 330 327 328 37
b 125 112 139 137 123 492
b 126 463 460 462 464 461
b 127 327 328 37 321 318
b 128 328 36 37 321 318
b 129 331 477 34 36 37 35
b 130 477 34 36 37 33 35
b 131 34 36 37 321 33 35
b 132 36 37 321 33 35 318
b 133 321 33 319 35 318
b 134 33 319 35 318 313
b 135 319 35 318 313 310
b 136 35 318 313 310 293
b 137 318 313 310 288 293
b 138 313 310 288 292 293
b 139 310 290 288 292 293
b 140 290 288 292 287 293
b 141 288 292 287 280 293
b 142 292 287 280 289 293
b 143 287 282 280 289 293
b 144 435 436 432 417 441
b 145 371 369 324 326 398
b 146 359 358 349 362 376
b 147 444 446 447 41 440
b 148 128 127 108 125 110
b 149 340 338 57 293 337
b 150 425 388 392 414 429
b 151 385 383 382 58 51
b 152 141 137 142 157 120
b 153 406 405 407 392 49
b 154 143 155 163 107 152
b 155 211 207 197 210 219
b 156 229 228 215 226 90
b 157 240 242 241 73 248
b 158 257 255 254 247 69
b 159 270 271 260 269 59
b 160 259 261 304 260 93
b 161 344 341 342 63 303
b 162 74 72 485 243 75
b 163 117 214 212 187 493
b 164 80 79 486 457 81
b 165 77 419 486 420 402
b 166 277 276 267 273 83
b 167 71 72 485 73 171
b 168 214 212 187 493 215 226
b 169 212 187 493 215 226 6
b 170 52 440 426 481 51
b 171 78 486 420 457 461
b 172 460 462 464 458 457 461
b 173 462 464 448 458 457 461
b 174 464 45 448 458 457 461
b 175 139 137 142 151 123 492
b 176 148 135 131 136 169 171
b 177 135 131 136 169 132 171
b 178 131 136 169 110 132 171
b 179 261 304 305 260 269 93
b 180 282 280 289 284 279 293
b 181 280 289 284 279 75 293
b 182 289 291 284 279 75 293
b 183 405 393 407 389 392 49
b 184 301 341 298 300 303
b 185 350 352 348 317 354
b 186 367 388 366 414 365
b 187 360 356 357 365 401
b 188 297 295 298 294 300
b 189 296 295 298 235 332
b 190 380 377 381 390 378
b 191 374 382 336 372 375
b 192 438 439 433 440 426
b 193 386 388 366 379 389
b 194 415 422 404 417 413
b 195 346 382 58 56 336
b 196 363 366 379 361 362
b 197 351 358 349 352 348
b 198 353 345 62 64 387
b 199 124 123 154 114 106
b 200 129 108 107 130 152
b 201 456 458 42 457 81
b 202 309 305 269 85 87
b 203 134 136 162 130 132
b 204 335 333 334 342 60
b 205 153 142 151 157 158
b 206 156 162 130 152 159
b 207 161 154 99 163 106
b 208 411 413 414 365 401
b 209 164 162 167 159 175
b 210 165 136 169 162 167
b 211 315 323 317 85 84
b 212 166 99 163 101 102
b 213 168 155 163 104 102
b 214 170 169 167 173 181
b 215 172 198 174 101 102
b 216 176 175 103 178 179
b 217 177 167 175 179 181
b 218 180 204 178 179 184
b 219 183 185 173 181 248
b 220 182 185 179 181 184
b 221 186 185 251 184 224
b 222 194 196 192 191 206
b 223 200 198 174 201 202
b 224 203 205 201 202 216
b 225 208 210 206 201 216
b 226 421 433 426 48 49
b 227 199 198 191 206 201
b 228 306 305 85 84 82
b 229 325 323 326 317 354
b 230 217 210 216 219 220
b 231 218 230 205 216 220
b 232 221 89 219 220 233
b 233 222 223 204 184 224
b 234 373 47 64 372 375
b 235 231 230 220 233 234
b 236 236 264 237 89 90
b 237 239 72 243 241 73
b 238 244 243 246 245 241
b 239 249 185 251 248 252
b 240 250 242 254 248 252
b 241 416 432 417 413 414
b 242 266 263 267 273 264
b 243 263 267 273 264 6 90
b 244 272 273 264 237 274
b 245 283 281 285 53 247
b 246 364 366 357 361 365
b 247 299 68 70 294 300
b 248 302 53 70 300 303
b 249 314 311 369 324 312
b 250 311 369 324 312 83 6
b 251 436 432 417 441 439 433
b 252 394 390 393 407 64 387
b 253 127 108 105 107 125 110
b 254 338 57 293 337 56 70
b 255 446 447 44 43 41 440
b 256 447 44 480 43 41 45 440
b 257 44 480 43 41 45 448 440
b 258 480 43 41 45 448 42 440
b 259 43 41 45 448 458 42 440
b 260 41 45 448 458 42 442 440
b 261 45 448 458 42 442 457 461 440
b 262 458 42 442 457 81 461 440
b 263 42 442 457 81 461 441 440
b 264 442 457 81 461 441 439 440
b 265 276 267 273 82 83 274
b 266 271 260 269 87 59 61
b 267 207 197 196 210 206 219
b 268 228 215 226 188 88 90
b 269 419 486 420 422 402 404
b 270 255 254 247 68 69 252
b 271 79 486 420 422 457 81
b 272 383 382 58 50 51 375
b 273 369 324 312 326 398 83 6
b 274 324 312 323 326 398 83 6
b 275 312 323 326 84 398 83 6
b 276 137 142 151 157 123 492 120
b 277 142 151 157 158 123 492 120
b 278 151 157 158 123 154 492 120
b 279 157 158 123 154 492 100 120
b 280 158 123 154 492 99 100 120
b 281 57 293 337 482 58 56 70
b 282 72 485 243 75 241 73 171
b 283 485 243 76 75 241 73 171
b 284 123 154 492 114 99 106 100 120
b 285 154 492 114 99 163 106 100 120
b 286 492 114 99 163 106 125 100 120
b 287 114 99 163 105 106 125 100 120
b 288 403 402 404 413 398 401
b 289 119 187 493 188 193 120
b 290 291 284 279 75 285 293 337
b 291 284 279 75 281 285 293 337
b 292 279 76 75 281 285 293 337
b 293 155 163 104 107 152 159 102
b 294 358 349 352 348 361 362 376
b 295 349 352 348 87 361 362 376
b 296 197 196 188 193 210 206 219
b 297 242 254 245 241 73 248 252
b 298 486 420 422 402 404 457 81 461
b 299 422 402 404 457 81 461 417 413
b 300 267 273 264 82 83 274 6 90
b 301 273 264 237 82 83 274 6 90
b 302 264 237 89 82 83 274 6 90
b 303 196 192 188 193 210 191 206 219
b 304 187 493 215 226 188 193 120 6
b 305 215 226 188 193 120 6 88 90
b 306 243 246 76 75 245 241 73 171
b 307 86 487 348 317 85 87
b 308 92 91 488 93 235 332
b 309 65 66 484 251 67 224
b 310 109 491 108 110 130 132
b 311 491 108 105 106 107 110 130 132
b 312 108 105 106 107 125 110 130 132 152
b 313 54 285 482 53 56 336
b 314 225 223 230 234 67 224
b 315 341 334 342 63 298 300 303
b 316 304 305 260 269 82 93 274
b 317 402 404 457 81 461 417 413 398 401
b 318 55 482 53 336 303 372
b 319 377 381 390 379 362 376 378
b 320 381 390 393 379 389 362 376 378
b 321 356 326 354 357 365 398 401
b 322 382 58 56 336 50 51 372 375
b 323 487 348 317 85 84 87 82 83
b 324 136 169 162 167 110 130 132 171
b 325 192 188 193 210 100 120 191 206 219
b 326 169 162 167 110 130 132 171 173 181
b 327 246 76 75 281 245 241 247 73 171
b 328 483 62 60 63 59 61 64
b 329 345 62 60 61 64 378 387
b 330 62 342 60 63 59 61 64 378 387
b 331 333 334 342 60 59 93 332
b 332 66 484 251 67 68 224 252 294
b 333 484 251 67 68 69 70 224 252 294
b 334 432 417 441 413 439 433 414 429
b 335 91 488 237 89 93 235 332 233
b 336 488 237 89 93 235 332 88 90 233
b 337 223 230 205 204 234 67 184 224
b 338 457 81 461 417 441 413 439 440 398 401
b 339 417 441 413 439 433 440 414 429 398 401
b 340 413 439 433 440 414 429 365 398 401
b 341 439 433 440 426 414 429 365 398 401
b 342 490 99 104 101 102 103 100
b 343 198 174 101 102 191 206 201 202
b 344 174 101 102 103 191 206 178 201 202
b 345 388 366 379 389 392 414 429 365
b 346 305 260 269 85 84 87 82 93 274
b 347 260 269 85 84 87 59 61 82 93 274
b 348 254 245 241 247 73 68 69 248 252
b 349 433 440 426 48 49 414 429 365 398 401
b 350 323 326 317 354 85 84 398 83 6
b 351 440 426 481 48 49 414 429 365 398 401 51
b 352 426 481 48 49 414 429 365 398 401 50 51
b 353 481 48 49 414 429 47 365 398 401 50 51
b 354 48 49 414 429 47 365 398 401 50 51 375
b 355 295 298 235 332 234 67 294 300
b 356 352 348 317 354 87 357 361 362 376
b 357 390 393 407 379 389 362 376 64 378 387
b 358 393 407 379 389 392 49 362 376 64 378 387
b 359 407 379 389 392 49 47 362 376 64 378 387
b 360 334 342 60 63 298 59 93 332 300 303
b 361 366 379 389 392 414 429 357 361 362 365
b 362 188 193 210 100 120 191 206 6 88 90 219
b 363 76 75 281 285 293 337 245 241 247 73 171
b 364 281 285 293 337 53 245 241 247 73 171
b 365 230 205 204 216 220 233 234 67 184 224
b 366 205 204 201 202 216 220 233 234 67 184 224
b 367 204 178 201 202 216 220 233 234 67 179 184 224
b 368 162 167 110 130 132 152 159 175 171 173 181
b 369 167 110 130 132 152 159 175 171 173 179 181
b 370 326 317 354 85 84 357 365 398 401 83 6
b 371 185 251 173 179 181 184 224 248 252
b 372 99 163 104 105 106 125 101 102 103 100 120
b 373 163 104 105 106 107 125 152 159 101 102 103 100 120
b 374 104 105 106 107 125 152 159 175 101 102 103 100 120
b 375 105 106 107 125 110 130 132 152 159 175 101 102 103 100 120
b 376 348 317 354 85 84 87 357 361 362 376 82 83
b 377 237 89 82 83 93 235 274 332 6 88 90 233
b 378 89 82 83 93 235 274 332 6 88 90 219 220 233
b 379 285 293 337 482 53 245 241 247 73 56 336 171
b 380 293 337 482 53 245 241 247 73 58 56 336 70 171
b 381 337 482 53 245 241 247 73 58 56 336 69 70 171
b 382 482 53 245 241 247 73 58 56 336 69 70 171 303 372
b 383 53 245 241 247 73 58 56 336 69 70 171 300 303 372
b 384 317 354 85 84 87 357 361 362 365 376 398 401 82 83 6
b 385 342 60 63 298 59 61 64 378 387 93 332 300 303
b 386 63 298 59 61 64 378 387 93 332 300 303 372
b 387 110 130 132 152 159 175 101 102 103 100 120 171 173 179 181
b 388 175 101 102 103 100 120 178 171 173 179 181
b 389 101 102 103 100 120 191 206 178 201 202 171 173 179 181
b 390 210 100 120 191 206 201 216 6 88 90 219 220
b 391 251 67 68 69 70 173 179 181 184 224 248 252 294
b 392 245 241 247 73 58 56 336 68 69 70 171 248 252 300 303 372
b 393 73 58 56 336 68 69 70 171 173 248 252 300 303 372
b 394 379 389 392 49 414 429 47 357 361 362 365 376 64 378 387
b 395 49 414 429 47 357 361 362 365 376 398 401 64 378 387 50 51 375
b 396 47 357 361 362 365 376 398 401 64 378 387 50 51 372 375
b 397 58 56 336 50 51 68 69 70 171 173 248 252 300 303 372 375
b 398 100 120 191 206 178 201 202 216 6 88 90 219 220 171 173 179 181
b 399 178 201 202 216 6 88 90 219 220 233 234 67 171 173 179 181 184 224
b 400 298 59 61 64 378 387 93 235 332 234 67 294 300 303 372
b 401 85 84 87 357 361 362 365 376 398 401 59 61 82 83 93 274 6
b 402 357 361 362 365 376 398 401 59 61 64 378 387 82 83 93 274 6 50 51 372 375
b 403 59 61 64 378 387 82 83 93 235 274 332 6 234 50 51 67 294 300 303 372 375
b 404 82 83 93 235 274 332 6 88 90 219 220 233 234 50 51 67 294 300 303 372 375
b 405 6 88 90 219 220 233 234 50 51 67 171 173 179 181 184 224 294 300 303 372 375
b 406 50 51 67 68 69 70 171 173 179 181 184 224 248 252 294 300 303 372 375
1 35
35 250
250 273
273 274
274 275
275 350
350 370
370 384
384 401
401 402
402 396
402 403
403 404
404 405
403 400
396 395
405 399
405 406
399 398
406 397
397 393
393 392
392 383
383 382
382 381
381 380
404 378
395 394
406 391
384 376
380 379
398 389
378 377
398 390
400 386
399 367
386 385
394 359
389 388
367 366
359 358
388 387
387 375
375 374
374 373
387 369
373 372
369 368
395 354
354 353
353 352
352 351
394 361
379 364
390 362
358 357
385 360
366 365
351 349
364 363
392 348
391 333
391 371
401 347
376 356
389 344
377 336
385 330
375 312
368 326
362 325
349 341
363 327
347 346
341 340
340 339
397 322
376 323
377 302
372 287
361 345
365 337
333 332
344 343
336 335
312 311
326 324
357 320
327 306
325 303
339 334
339 338
400 355
302 301
287 286
338 317
301 300
286 285
317 299
285 284
380 281
373 293
372 342
362 305
360 315
360 331
363 292
348 297
356 295
330 328
330 329
346 316
320 319
306 283
303 296
338 264
299 298
284 280
305 304
292 291
295 294
370 321
283 282
264 263
263 262
262 261
261 260
260 259
259 258
258 257
257 256
280 279
279 278
278 277
277 276
291 290
261 174
256 255
276 175
290 182
174 173
182 181
173 172
181 180
382 318
379 313
358 183
357 252
348 270
347 266
312 253
322 272
323 307
337 314
332 309
335 308
311 310
324 178
178 177
177 176
334 251
317 288
300 243
300 265
281 254
305 268
316 179
296 267
298 269
298 271
304 169
304 289
169 168
277 205
276 152
255 147
175 125
270 158
183 153
266 159
282 237
321 187
272 151
282 162
282 167
172 126
273 145
262 201
176 99
251 144
243 242
265 166
254 149
268 156
179 160
267 155
269 165
271 164
168 163
250 249
383 248
99 98
98 97
97 96
96 95
95 94
94 93
93 92
92 28
28 26
378 232
390 225
390 230
180 143
143 142
142 141
141 140
140 139
139 138
138 137
137 136
136 135
135 134
134 133
133 132
132 131
131 130
130 129
132 128
128 127
367 218
388 216
396 234
366 224
369 217
372 212
368 206
368 209
351 170
361 196
361 246
364 245
365 231
365 235
349 226
371 220
371 221
371 239
371 219
356 185
312 200
326 214
341 192
346 202
346 228
340 208
350 211
253 148
322 191
322 195
302 236
350 229
345 150
345 186
345 193
337 233
343 215
343 223
343 227
324 203
324 210
306 238
303 222
334 241
355 188
355 189
301 244
285 207
299 194
284 199
293 154
293 213
315 184
315 161
331 204
406 247
297 157
297 240
329 198
319 190
298 171
294 146
294 197
174 59
252 39
252 40
181 83
314 74
288 43
243 80
243 79
169 72
289 17
151 38
126 16
145 36
144 56
166 82
149 91
156 73
160 78
99 67
165 47
155 71
95 65
152 64
152 62
141 84
147 49
125 12
137 86
136 87
158 77
153 45
159 81
129 19
129 89
127 88
127 124
263 58
26 10
148 61
163 13
150 48
26 8
154 63
161 37
157 75
256 21
171 60
146 34
279 66
16 14
124 123
123 90
123 122
122 121
121 41
121 120
120 119
119 118
118 101
101 100
118 18
100 46
100 54
54 53
53 52
52 51
52 44
51 9
51 50
325 68
250 85
332 76
343 69
286 15
284 11
295 57
296 70
14 7
101 106
106 105
106 107
107 108
108 109
109 110
110 111
111 112
105 33
111 42
109 55
112 117
33 32
32 31
31 30
30 29
29 27
30 20
117 116
116 115
115 114
114 113
113 104
104 103
103 102
102 22
102 24
27 23
27 25
22 6
7 4
4 2
86 5
5 3
END

EOF
